k = 46;
b = 23;
AtomicConstraints =  [|
1, 2|
	1, 4|
	1, 8|
	1, 9|
	1, 10|
	1, 14|
	1, 15|
	1, 16|
	1, 20|
	2, 8|
	2, 9|
	2, 10|
	2, 14|
	2, 15|
	2, 16|
	2, 20|
	3, 2|
	3, 4|
	3, 5|
	3, 8|
	3, 9|
	3, 10|
	3, 14|
	3, 15|
	3, 16|
	3, 20|
	4, 8|
	4, 9|
	4, 10|
	4, 14|
	4, 15|
	4, 16|
	4, 20|
	5, 8|
	5, 9|
	5, 10|
	5, 14|
	5, 15|
	5, 16|
	5, 20|
	8, 20|
	9, 20|
	10, 20|
	11, 12|
	11, 13|
	11, 14|
	11, 15|
	11, 16|
	11, 20|
	12, 13|
	12, 14|
	12, 15|
	12, 16|
	12, 20|
	13, 14|
	13, 15|
	13, 16|
	13, 20|
	15, 14|
	16, 14|
	16, 15|
	18, 17|
	19, 17|
	19, 18|
	21, 6|
	22, 6|
	22, 7|
	23, 6|
	23, 7|
	32, 43|
	32, 29|
	32, 45|
	44, 43|
	44, 32|
	44, 29|
	44, 45|
	44, 38|
	36, 43|
	36, 32|
	36, 44|
	36, 29|
	36, 45|
	36, 38|
	25, 43|
	25, 32|
	25, 44|
	25, 36|
	25, 29|
	25, 45|
	25, 38|
	25, 30|
	28, 43|
	28, 32|
	28, 44|
	28, 36|
	28, 25|
	28, 29|
	28, 45|
	28, 38|
	28, 30|
	28, 27|
	37, 43|
	37, 32|
	37, 44|
	37, 36|
	37, 25|
	37, 28|
	37, 29|
	37, 45|
	37, 38|
	37, 30|
	37, 27|
	37, 24|
	33, 43|
	33, 32|
	33, 44|
	33, 36|
	33, 25|
	33, 28|
	33, 37|
	33, 29|
	33, 45|
	33, 38|
	33, 30|
	33, 27|
	33, 24|
	42, 20|
	42, 43|
	42, 32|
	42, 44|
	42, 36|
	42, 25|
	42, 28|
	42, 37|
	42, 33|
	42, 29|
	42, 45|
	42, 38|
	42, 30|
	42, 27|
	42, 24|
	42, 40|
	46, 20|
	46, 43|
	46, 32|
	46, 44|
	46, 36|
	46, 25|
	46, 28|
	46, 37|
	46, 33|
	46, 42|
	46, 29|
	46, 45|
	46, 38|
	46, 30|
	46, 27|
	46, 24|
	46, 40|
	46, 41|
	46, 39|
	26, 20|
	26, 43|
	26, 32|
	26, 44|
	26, 36|
	26, 25|
	26, 28|
	26, 37|
	26, 33|
	26, 42|
	26, 46|
	26, 29|
	26, 45|
	26, 38|
	26, 30|
	26, 27|
	26, 24|
	26, 40|
	26, 41|
	26, 39|
	26, 35|
	26, 31|
	26, 34|
	45, 43|
	45, 29|
	38, 43|
	38, 29|
	38, 45|
	30, 43|
	30, 32|
	30, 44|
	30, 29|
	30, 45|
	30, 38|
	27, 43|
	27, 32|
	27, 44|
	27, 36|
	27, 29|
	27, 45|
	27, 38|
	27, 30|
	24, 43|
	24, 32|
	24, 44|
	24, 36|
	24, 25|
	24, 29|
	24, 45|
	24, 38|
	24, 30|
	24, 27|
	40, 43|
	40, 32|
	40, 44|
	40, 36|
	40, 25|
	40, 28|
	40, 37|
	40, 29|
	40, 45|
	40, 38|
	40, 30|
	40, 27|
	40, 24|
	41, 20|
	41, 43|
	41, 32|
	41, 44|
	41, 36|
	41, 25|
	41, 28|
	41, 37|
	41, 33|
	41, 29|
	41, 45|
	41, 38|
	41, 30|
	41, 27|
	41, 24|
	41, 40|
	39, 20|
	39, 43|
	39, 32|
	39, 44|
	39, 36|
	39, 25|
	39, 28|
	39, 37|
	39, 33|
	39, 42|
	39, 29|
	39, 45|
	39, 38|
	39, 30|
	39, 27|
	39, 24|
	39, 40|
	39, 41|
	35, 20|
	35, 43|
	35, 32|
	35, 44|
	35, 36|
	35, 25|
	35, 28|
	35, 37|
	35, 33|
	35, 42|
	35, 29|
	35, 45|
	35, 38|
	35, 30|
	35, 27|
	35, 24|
	35, 40|
	35, 41|
	35, 39|
	31, 20|
	31, 43|
	31, 32|
	31, 44|
	31, 36|
	31, 25|
	31, 28|
	31, 37|
	31, 33|
	31, 42|
	31, 46|
	31, 29|
	31, 45|
	31, 38|
	31, 30|
	31, 27|
	31, 24|
	31, 40|
	31, 41|
	31, 39|
	31, 35|
	34, 20|
	34, 43|
	34, 32|
	34, 44|
	34, 36|
	34, 25|
	34, 28|
	34, 37|
	34, 33|
	34, 42|
	34, 46|
	34, 29|
	34, 45|
	34, 38|
	34, 30|
	34, 27|
	34, 24|
	34, 40|
	34, 41|
	34, 39|
	34, 35|
	34, 31|];
DisjunctiveConstraints =  [|1, 8, 31, 1|
	2, 8, 31, 2|
	4, 5, 4, 2|
	9, 8, 9, 10|
	18, 40, 18, 17|
	19, 40, 19, 17|
	19, 41, 19, 18|
	22, 23, 22, 21|
	22, 29, 22, 6|
	23, 30, 23, 7|
	36, 44, 36, 21|
	25, 44, 25, 21|
	28, 20, 28, 43|
	28, 44, 28, 21|
	37, 20, 37, 43|
	37, 44, 37, 21|
	33, 20, 33, 43|
	33, 44, 33, 21|
	42, 20, 42, 43|
	42, 44, 42, 21|
	46, 20, 46, 43|
	46, 44, 46, 21|
	46, 42, 46, 19|
	26, 2, 26, 25|
	26, 5, 26, 28|
	26, 13, 26, 36|
	26, 14, 26, 37|
	26, 20, 26, 43|
	26, 44, 26, 21|
	26, 42, 26, 19|
	26, 46, 26, 23|
	45, 29, 45, 6|
	38, 29, 38, 6|
	38, 45, 38, 22|
	30, 29, 30, 6|
	30, 45, 30, 22|
	27, 43, 20, 27|
	27, 29, 27, 6|
	27, 45, 27, 22|
	24, 43, 20, 24|
	24, 29, 24, 6|
	24, 45, 24, 22|
	40, 43, 20, 40|
	40, 29, 40, 6|
	40, 45, 40, 22|
	40, 30, 40, 7|
	41, 15, 41, 38|
	41, 43, 20, 41|
	41, 29, 41, 6|
	41, 45, 41, 22|
	41, 30, 41, 7|
	41, 40, 41, 17|
	39, 15, 39, 38|
	39, 43, 20, 39|
	39, 29, 39, 6|
	39, 45, 39, 22|
	39, 30, 39, 7|
	39, 40, 39, 17|
	39, 41, 39, 18|
	35, 15, 35, 38|
	35, 43, 20, 35|
	35, 36, 13, 35|
	35, 29, 35, 6|
	35, 45, 35, 22|
	35, 30, 35, 7|
	35, 40, 35, 17|
	35, 41, 35, 18|
	31, 15, 31, 38|
	31, 43, 20, 31|
	31, 36, 13, 31|
	31, 29, 31, 6|
	31, 45, 31, 22|
	31, 30, 31, 7|
	31, 40, 31, 17|
	31, 41, 31, 18|
	34, 15, 34, 38|
	34, 43, 20, 34|
	34, 36, 13, 34|
	34, 25, 2, 34|
	34, 28, 5, 34|
	34, 29, 34, 6|
	34, 45, 34, 22|
	34, 30, 34, 7|
	34, 40, 34, 17|
	34, 41, 34, 18|];
SoftAtomicConstraints =  [|
3, 1|
4, 2|
5, 4|
7, 6|
8, 9|
9, 10|
22, 21|
23, 22|
28, 24|
25, 27|
43, 29|
36, 30|
46, 35|
32, 38|
33, 40|
42, 41|];
DirectSuccessors =  [6,
7,
17,
18,
19,
21,
22,
23,
44,
42,
46,
29,
45,
40,
41];
